33D32945 STP File, STP Format Version 1.0

SECTION Comment
Name    "cancer14_8D"
Creator "S. A. Chowdhury, A. A. Schaffer, R. Schwartz"
Problem "Rectilinear Steiner Minimum Tree"
Remark  "Derived from a problem in cancer genomics and from a breast cancer data set"
END

Section Graph
Nodes 54
END

SECTION Coordinates
DDDDDDDD 1 2 2 2 2 2 2 2 2 
DDDDDDDD 2 3 2 1 2 1 2 2 2 
DDDDDDDD 3 3 2 2 2 2 2 2 2 
DDDDDDDD 4 2 0 1 2 1 1 1 2 
DDDDDDDD 5 3 3 3 2 1 2 2 2 
DDDDDDDD 6 4 3 3 2 1 2 2 1 
DDDDDDDD 7 4 3 4 2 1 2 2 2 
DDDDDDDD 8 2 3 3 2 1 2 3 2 
DDDDDDDD 9 4 2 3 2 1 2 2 2 
DDDDDDDD 10 4 3 3 1 1 2 2 1 
DDDDDDDD 11 4 3 3 2 1 2 2 2 
DDDDDDDD 12 2 2 0 2 1 1 2 2 
DDDDDDDD 13 2 2 2 2 1 1 2 2 
DDDDDDDD 14 2 2 2 2 2 2 1 2 
DDDDDDDD 15 2 2 2 2 2 2 2 1 
DDDDDDDD 16 2 3 2 2 1 2 2 2 
DDDDDDDD 17 2 3 2 2 2 2 2 2 
DDDDDDDD 18 2 3 3 2 1 2 2 2 
DDDDDDDD 19 2 3 3 2 1 2 6 2 
DDDDDDDD 20 3 2 2 2 1 1 2 2 
DDDDDDDD 21 3 2 2 2 1 2 2 2 
DDDDDDDD 22 3 2 3 2 1 1 2 2 
DDDDDDDD 23 3 2 3 2 1 2 2 2 
DDDDDDDD 24 3 2 4 2 2 2 2 2 
DDDDDDDD 25 3 3 2 2 1 2 0 2 
DDDDDDDD 26 3 3 3 2 2 1 2 2 
DDDDDDDD 27 3 3 3 2 2 2 2 2 
DDDDDDDD 28 3 4 3 2 1 2 2 2 
DDDDDDDD 29 4 2 1 2 2 2 2 2 
DDDDDDDD 30 4 2 2 1 1 1 2 2 
DDDDDDDD 31 4 2 2 2 1 0 2 2 
DDDDDDDD 32 4 2 2 2 1 1 2 2 
DDDDDDDD 33 4 2 2 2 1 2 2 2 
DDDDDDDD 34 4 2 2 2 2 2 2 2 
DDDDDDDD 35 4 2 3 2 1 1 1 2 
DDDDDDDD 36 4 2 4 2 1 1 2 2 
DDDDDDDD 37 4 2 4 3 2 3 2 2 
DDDDDDDD 38 4 3 2 2 1 1 2 2 
DDDDDDDD 39 4 3 2 2 1 2 2 1 
DDDDDDDD 40 4 3 2 2 1 2 2 2 
DDDDDDDD 41 4 3 2 2 1 3 2 2 
DDDDDDDD 42 4 3 3 2 1 1 2 2 
DDDDDDDD 43 4 3 3 2 1 3 2 2 
DDDDDDDD 44 4 3 4 2 1 2 3 2 
DDDDDDDD 45 4 3 4 2 2 2 2 2 
DDDDDDDD 46 5 3 3 2 1 2 2 2 
DDDDDDDD 47 2 2 2 2 2 3 2 2 
DDDDDDDD 48 3 2 2 2 1 2 1 2 
DDDDDDDD 49 3 3 2 2 1 2 2 2 
DDDDDDDD 50 4 3 2 2 1 2 3 2 
DDDDDDDD 51 4 3 3 2 2 2 2 2 
DDDDDDDD 52 5 2 2 2 1 2 2 2 
DDDDDDDD 53 4 3 4 2 1 1 4 2 
DDDDDDDD 54 4 3 5 2 1 2 3 2 
END

EOF
